words_hard_train/6269.qaiger
aag 20 9 0 1 11
2
4
8
10
16
20
24
28
34
41
6 2 4
12 9 11
14 6 13
18 14 16
22 20 4
26 23 25
30 26 29
32 19 30
36 32 35
38 31 34
40 37 39
i0 2 y2[1]
i1 2 y2[4]
i2 1 x2[2]
i3 2 y2[0]
i4 2 y2[2]
i5 2 y2[3]
i6 2 y2[6]
i7 2 y2[5]
i8 2 y2[7]
o0 bv[0]
c
simplified
  <
    and
      1
      >> 2
        1 x2
    subtract
      23
      2 y2
