words_hard_train/6269.qaiger.qdimacs
p cnf 20 34
a 4 0
e 1 2 3 5 6 7 8 9 10 11 12 13 14 15 16 17 18 19 20 0
-1 -2 3 0
1 -3 0
2 -3 0
4 5 6 0
-4 -6 0
-5 -6 0
-3 6 7 0
3 -7 0
-6 -7 0
-7 -8 9 0
7 -9 0
8 -9 0
-10 -2 11 0
10 -11 0
2 -11 0
11 12 13 0
-11 -13 0
-12 -13 0
-13 14 15 0
13 -15 0
-14 -15 0
9 -15 16 0
-9 -16 0
15 -16 0
-16 17 18 0
16 -18 0
-17 -18 0
15 -17 19 0
-15 -19 0
17 -19 0
18 19 20 0
-18 -20 0
-19 -20 0
-20 0
